numOfMachines = 4;
numOfRobots = 2;
numOfJobs = 5;
maxOperations = 4;
operationsCount = [4,3,3,3,4];

operation = [
[<0,0,0>,<3,18,0>,<1,24,1>,<2,18,0>,<4,12,1>],
[<0,0,0>,<3,32,0>,<2,22,0>,<4,18,1>],
[<0,0,0>,<1,42,0>,<2,36,0>,<4,14,0>],
[<0,0,0>,<2,40,0>,<3,44,1>,<4,22,0>],
[<0,0,0>,<3,28,0>,<1,32,0>,<2,26,1>,<4,18,0>]
];